2025-03-05 21:03:38,072 - INFO - Set parameter WLSAccessID
2025-03-05 21:03:38,072 - INFO - Set parameter WLSSecret
2025-03-05 21:03:38,072 - INFO - Set parameter LicenseID to value 2628134
2025-03-05 21:03:38,313 - INFO - Academic license 2628134 - for non-commercial use only - registered to bs___@uw.edu
2025-03-05 21:03:38,313 - INFO - Initialization complete
2025-03-05 21:03:38,954 - INFO - Variables created successfully
2025-03-05 21:03:44,036 - INFO - Constraints added successfully
2025-03-05 21:03:44,050 - INFO - Objective function set successfully
2025-03-05 21:03:44,183 - INFO - System has 373.7 GB of RAM available
2025-03-05 21:03:44,183 - INFO - Set parameter MemLimit to value 344064
2025-03-05 21:03:44,183 - INFO - Set Gurobi memory limit to 336 GB
2025-03-05 21:03:44,184 - INFO - Set parameter MIPGap to value 0.1
2025-03-05 21:03:44,184 - INFO - Set parameter TimeLimit to value 7200
2025-03-05 21:03:44,184 - INFO - Set parameter MIPFocus to value 1
2025-03-05 21:03:44,184 - INFO - Set parameter Presolve to value 2
2025-03-05 21:03:44,184 - INFO - Set parameter NodefileStart to value 0.95
2025-03-05 21:03:44,184 - INFO - Set parameter NodefileDir to value "/tmp/gurobi_nodefiles"
2025-03-05 21:03:44,184 - INFO - Using node file directory: /tmp/gurobi_nodefiles
2025-03-05 21:03:44,184 - INFO - Set parameter NodeMethod to value 1
2025-03-05 21:03:44,184 - INFO - Set parameter PoolSearchMode to value 2
2025-03-05 21:03:44,184 - INFO - Set parameter RINS to value 10
2025-03-05 21:03:44,185 - INFO - Set parameter Threads to value 46
2025-03-05 21:03:44,185 - INFO - Using 46 threads out of 48 available cores
2025-03-05 21:03:44,563 - INFO - Greedy initial solution generated successfully
2025-03-05 21:03:44,563 - INFO - Starting optimization - accepting solutions within 10% of optimal
2025-03-05 21:03:44,563 - INFO - Maximum possible satisfied requests: 2400
2025-03-05 21:03:44,683 - INFO - Gurobi Optimizer version 10.0.3 build v10.0.3rc0 (linux64)
2025-03-05 21:03:44,683 - INFO - 
2025-03-05 21:03:44,683 - INFO - CPU model: Intel(R) Xeon(R) Platinum 8259CL CPU @ 2.50GHz, instruction set [SSE2|AVX|AVX2|AVX512]
2025-03-05 21:03:44,684 - INFO - Thread count: 24 physical cores, 48 logical processors, using up to 46 threads
2025-03-05 21:03:44,684 - INFO - 
2025-03-05 21:03:44,685 - INFO - Academic license 2628134 - for non-commercial use only - registered to bs___@uw.edu
2025-03-05 21:03:44,685 - INFO - Optimize a model with 437110 rows, 162518 columns and 1186660 nonzeros
2025-03-05 21:03:44,700 - INFO - Model fingerprint: 0xf107fa98
2025-03-05 21:03:44,700 - INFO - Variable types: 0 continuous, 162518 integer (162518 binary)
2025-03-05 21:03:44,702 - INFO - Coefficient statistics:
2025-03-05 21:03:44,702 - INFO -   Matrix range     [1e+00, 1e+00]
2025-03-05 21:03:44,702 - INFO -   Objective range  [1e+00, 1e+00]
2025-03-05 21:03:44,702 - INFO -   Bounds range     [1e+00, 1e+00]
2025-03-05 21:03:44,702 - INFO -   RHS range        [1e+00, 4e+01]
2025-03-05 21:03:44,702 - INFO - 
2025-03-05 21:03:44,712 - INFO - User MIP start did not produce a new incumbent solution
2025-03-05 21:03:44,720 - INFO - User MIP start violates constraint course_requirement_ST001_Math_1 by 1.000000000
2025-03-05 21:03:44,721 - INFO - 
2025-03-05 21:03:49,872 - INFO - Presolve removed 299 rows and 35 columns (presolve time = 5s) ...
2025-03-05 21:04:18,180 - INFO - Presolve removed 299 rows and 35 columns (presolve time = 33s) ...
2025-03-05 21:04:29,144 - INFO - Presolve removed 299 rows and 35 columns (presolve time = 44s) ...
2025-03-05 21:04:46,001 - INFO - Presolve removed 299 rows and 35 columns (presolve time = 61s) ...
2025-03-05 21:05:03,516 - INFO - Presolve removed 299 rows and 35 columns (presolve time = 79s) ...
2025-03-05 21:05:04,865 - INFO - Presolve removed 18371 rows and 35 columns (presolve time = 80s) ...
2025-03-05 21:05:09,860 - INFO - Presolve removed 18371 rows and 35 columns (presolve time = 85s) ...
2025-03-05 21:05:14,860 - INFO - Presolve removed 18371 rows and 35 columns (presolve time = 90s) ...
2025-03-05 21:05:43,223 - INFO - Presolve removed 18371 rows and 35 columns (presolve time = 118s) ...
2025-03-05 21:05:53,854 - INFO - Presolve removed 18371 rows and 35 columns (presolve time = 129s) ...
2025-03-05 21:06:11,534 - INFO - Presolve removed 18371 rows and 35 columns (presolve time = 147s) ...
2025-03-05 21:06:11,680 - INFO - Presolve removed 18371 rows and 35 columns
2025-03-05 21:06:11,681 - INFO - Presolve time: 146.83s
2025-03-05 21:06:11,683 - INFO - Presolved: 418739 rows, 162483 columns, 1550186 nonzeros
2025-03-05 21:06:11,929 - INFO - Variable types: 0 continuous, 162483 integer (162483 binary)
2025-03-05 21:06:14,865 - INFO - 
2025-03-05 21:06:14,866 - INFO - Deterministic concurrent LP optimizer: primal simplex, dual simplex, and barrier
2025-03-05 21:06:14,866 - INFO - Showing barrier log only...
2025-03-05 21:06:14,866 - INFO - 
2025-03-05 21:06:20,807 - INFO - Root relaxation presolved: 418739 rows, 162483 columns, 1550186 nonzeros
2025-03-05 21:06:20,807 - INFO - 
2025-03-05 21:06:21,161 - INFO - Root barrier log...
2025-03-05 21:06:21,162 - INFO - 
2025-03-05 21:06:21,177 - INFO - Ordering time: 0.01s
2025-03-05 21:06:21,212 - INFO - 
2025-03-05 21:06:21,212 - INFO - Barrier statistics:
2025-03-05 21:06:21,212 - INFO -  AA' NZ     : 1.374e+05
2025-03-05 21:06:21,212 - INFO -  Factor NZ  : 8.519e+05 (roughly 13 MB of memory)
2025-03-05 21:06:21,212 - INFO -  Factor Ops : 1.082e+08 (less than 1 second per iteration)
2025-03-05 21:06:21,213 - INFO -  Threads    : 44
2025-03-05 21:06:21,228 - INFO - 
2025-03-05 21:06:21,228 - INFO -                   Objective                Residual
2025-03-05 21:06:21,228 - INFO - Iter       Primal          Dual         Primal    Dual     Compl     Time
2025-03-05 21:06:21,229 - INFO -    0   2.40000000e+03  2.40928438e+03  3.39e+01 0.00e+00  2.62e-01   157s
2025-03-05 21:06:21,238 - INFO -    1   2.40000000e+03  2.53076162e+03  1.51e+01 1.51e-02  1.06e-01   157s
2025-03-05 21:06:21,248 - INFO -    2   2.40000000e+03  2.51850507e+03  7.19e-01 2.50e-16  1.03e-02   157s
2025-03-05 21:06:21,259 - INFO -    3   2.40000000e+03  2.42494573e+03  1.39e-01 2.22e-16  1.62e-03   157s
2025-03-05 21:06:21,268 - INFO -    4   2.40000000e+03  2.40985982e+03  3.62e-04 9.19e-17  5.16e-04   157s
2025-03-05 21:06:21,276 - INFO -    5   2.40000000e+03  2.40000004e+03  3.38e-14 6.51e-17  2.08e-09   157s
2025-03-05 21:06:21,284 - INFO -    6   2.40000000e+03  2.40000000e+03  3.24e-14 3.31e-22  2.08e-15   157s
2025-03-05 21:06:21,285 - INFO - 
2025-03-05 21:06:21,285 - INFO - Barrier solved model in 6 iterations and 156.60 seconds (113.11 work units)
2025-03-05 21:06:21,285 - INFO - Optimal objective 2.40000000e+03
2025-03-05 21:06:21,285 - INFO - 
2025-03-05 21:06:21,288 - INFO - 
2025-03-05 21:06:21,288 - INFO - Root crossover log...
2025-03-05 21:06:21,288 - INFO - 
2025-03-05 21:06:21,291 - INFO -        0 DPushes remaining with DInf 0.0000000e+00               157s
2025-03-05 21:06:21,294 - INFO - 
2025-03-05 21:06:21,294 - INFO -      863 PPushes remaining with PInf 0.0000000e+00               157s
2025-03-05 21:06:21,304 - INFO -        0 PPushes remaining with PInf 0.0000000e+00               157s
2025-03-05 21:06:21,304 - INFO - 
2025-03-05 21:06:21,304 - INFO -   Push phase complete: Pinf 0.0000000e+00, Dinf 0.0000000e+00    157s
2025-03-05 21:06:21,305 - INFO - 
2025-03-05 21:06:21,306 - INFO - 
2025-03-05 21:06:21,307 - INFO - Root simplex log...
2025-03-05 21:06:21,307 - INFO - 
2025-03-05 21:06:21,307 - INFO - Iteration    Objective       Primal Inf.    Dual Inf.      Time
2025-03-05 21:06:21,307 - INFO -      866    2.4000000e+03   0.000000e+00   0.000000e+00    157s
2025-03-05 21:06:21,311 - INFO -      866    2.4000000e+03   0.000000e+00   0.000000e+00    157s
2025-03-05 21:06:21,368 - INFO - 
2025-03-05 21:06:21,368 - INFO - Use crossover to convert LP symmetric solution to basic solution...
2025-03-05 21:06:21,813 - INFO - 
2025-03-05 21:06:21,813 - INFO - Root crossover log...
2025-03-05 21:06:21,814 - INFO - 
2025-03-05 21:06:21,895 - INFO -    11703 PPushes remaining with PInf 0.0000000e+00               157s
2025-03-05 21:06:22,810 - INFO - Concurrent spin time: 0.01s
2025-03-05 21:06:22,810 - INFO - 
2025-03-05 21:06:22,810 - INFO - Solved with dual simplex
2025-03-05 21:06:22,825 - INFO - 
2025-03-05 21:06:22,825 - INFO - Root relaxation: objective 2.400000e+03, 14508 iterations, 7.96 seconds (4.80 work units)
2025-03-05 21:06:23,156 - INFO - 
2025-03-05 21:06:23,156 - INFO -     Nodes    |    Current Node    |     Objective Bounds      |     Work
2025-03-05 21:06:23,156 - INFO -  Expl Unexpl |  Obj  Depth IntInf | Incumbent    BestBd   Gap | It/Node Time
2025-03-05 21:06:23,156 - INFO - 
2025-03-05 21:06:23,156 - INFO - H    0     0                    2400.0000000 2400.00000  0.00%     -  158s
2025-03-05 21:06:24,498 - INFO -      0     0          -    0      2400.00000 2400.00000  0.00%     -  159s
2025-03-05 21:06:24,498 - INFO - 
2025-03-05 21:06:24,498 - INFO - Optimal solution found at node 0 - now completing solution pool...
2025-03-05 21:06:24,609 - INFO - 
2025-03-05 21:06:24,609 - INFO -     Nodes    |    Current Node    |      Pool Obj. Bounds     |     Work
2025-03-05 21:06:24,609 - INFO -              |                    |   Worst                   |
2025-03-05 21:06:24,609 - INFO -  Expl Unexpl |  Obj  Depth IntInf | Incumbent    BestBd   Gap | It/Node Time
2025-03-05 21:06:24,609 - INFO - 
2025-03-05 21:06:24,609 - INFO -      0     0          -    0               - 2400.00000      -     -  159s
2025-03-05 21:06:24,626 - INFO -      0     0          -    0               - 2400.00000      -     -  159s
2025-03-05 21:06:24,920 - INFO -      0     2          -    0               - 2400.00000      -     -  160s
2025-03-05 21:06:26,689 - INFO - 
2025-03-05 21:06:26,689 - INFO - Explored 31 nodes (23110 simplex iterations) in 162.01 seconds (116.91 work units)
2025-03-05 21:06:26,690 - INFO - Thread count was 46 (of 48 available processors)
2025-03-05 21:06:26,690 - INFO - 
2025-03-05 21:06:26,690 - INFO - Solution count 10: 2400 2400 2400 ... 2400
2025-03-05 21:06:26,690 - INFO - 
2025-03-05 21:06:26,690 - INFO - Optimal solution found (tolerance 1.00e-01)
2025-03-05 21:06:26,698 - INFO - Best objective 2.400000000000e+03, best bound 2.400000000000e+03, gap 0.0000%
2025-03-05 21:06:26,791 - INFO - Found solution within 10% of optimal
2025-03-05 21:06:26,792 - INFO - Satisfied requests: 2400.0 out of 2400
2025-03-05 21:06:26,792 - INFO - Satisfaction rate: 100.00%
2025-03-05 21:06:26,860 - INFO - Solution saved successfully
2025-03-05 21:06:26,860 - INFO - Warning: environment still referenced so free is deferred (Continue to use WLS)
